c SAT Generator for power-law distributed variable frequencies
c -g u -v 20 -c 91 -k 3 -p 2.750000 -b 3.200000 -f /home/schmidt/Devel/ni-kop-sat/data/ensemble/ruf20-91/ruf20-91-293 -u 1 -U 1 -s 2340127868
p cnf 20 91
2 8 -13 0
-2 -5 9 0
2 4 -6 0
3 -13 18 0
2 -5 8 0
-13 -14 -16 0
-6 8 -9 0
5 7 -15 0
-9 17 20 0
-3 -4 -11 0
2 5 20 0
-2 -7 -14 0
-7 -18 20 0
-1 -2 -8 0
-3 -8 20 0
-11 12 -17 0
6 10 -16 0
7 13 15 0
1 -6 8 0
-4 -9 17 0
-14 17 -19 0
-10 -17 20 0
-1 10 -12 0
6 13 -17 0
-3 -11 -17 0
1 -9 -14 0
11 12 20 0
4 -13 20 0
2 11 18 0
-3 16 -20 0
-6 -15 -19 0
-7 -9 13 0
-1 3 -16 0
8 9 -16 0
-1 9 20 0
3 16 -20 0
-4 -9 10 0
-1 4 -19 0
3 -9 -14 0
6 -8 18 0
1 19 -20 0
-1 10 11 0
5 -11 -14 0
-4 9 -17 0
-1 6 -11 0
-3 11 -12 0
6 -14 18 0
1 -15 19 0
-9 -13 -14 0
4 -6 -20 0
5 7 -9 0
2 13 -20 0
-11 -18 -20 0
-7 11 13 0
2 8 -18 0
1 17 18 0
14 18 19 0
-1 2 -18 0
-9 13 20 0
-8 -11 13 0
3 -6 -17 0
-1 -9 -13 0
10 13 -15 0
12 -16 18 0
-8 -17 20 0
10 -14 18 0
6 -7 -8 0
-14 -17 -18 0
-15 18 -20 0
-10 13 19 0
3 13 17 0
1 -9 14 0
11 17 19 0
1 -14 -16 0
4 -5 7 0
12 13 18 0
1 -4 -5 0
-3 -15 18 0
-1 -4 -5 0
-6 -10 18 0
5 -6 16 0
6 -18 -19 0
6 14 -18 0
-8 12 16 0
-2 -11 -16 0
4 -5 17 0
6 11 18 0
3 5 -20 0
-2 -4 -19 0
-10 11 -13 0
-9 10 12 0
